NAME VPM1_pre
ROWS
 N  OBJ
 E  DATE0102
 E  DATE0103
 E  DATE0105
 E  DATE0106
 E  DATE0202
 E  DATE0203
 E  DATE0204
 E  DATE0205
 E  DATE0304
 E  DATE0305
 E  DATE0405
 E  DATE0406
 E  DATE0504
 E  DATE0505
 E  DATE0506
 E  DATE0602
 E  DATE0702
 E  DATE0703
 E  DAT01.1.
 E  DAT06.1.
 L  DURE101.
 L  DURE102.
 L  DURE103.
 L  DURE104.
 L  DURE105.
 L  DURE106.
 L  DURE201.
 L  DURE202.
 L  DURE203.
 L  DURE204.
 L  DURE205.
 L  DURE206.
 L  DURE301.
 L  DURE302.
 L  DURE303.
 L  DURE304.
 L  DURE305.
 L  DURE306.
 L  DURE401.
 L  DURE402.
 L  DURE403.
 L  DURE404.
 L  DURE405.
 L  DURE406.
 L  YC010101
 L  YC010102
 L  YC010103
 L  YC010104
 L  YC010105
 L  YC010106
 L  YC010201
 L  YC010202
 L  YC010203
 L  YC010204
 L  YC010205
 L  YC010206
 L  YC010301
 L  YC010302
 L  YC010303
 L  YC010304
 L  YC010305
 L  YC010306
 L  YC010401
 L  YC010402
 L  YC010403
 L  YC010404
 L  YC010405
 L  YC010406
 L  YC020102
 L  YC020103
 L  YC020104
 L  YC020105
 L  YC020202
 L  YC020203
 L  YC020204
 L  YC020205
 L  YC020302
 L  YC020303
 L  YC020304
 L  YC020305
 L  YC020402
 L  YC020403
 L  YC020404
 L  YC020405
 L  YC030104
 L  YC030105
 L  YC030204
 L  YC030205
 L  YC030304
 L  YC030305
 L  YC030404
 L  YC030405
 L  YC040105
 L  YC040106
 L  YC040205
 L  YC040206
 L  YC040305
 L  YC040306
 L  YC040405
 L  YC040406
 L  YC050104
 L  YC050105
 L  YC050106
 L  YC050204
 L  YC050205
 L  YC050206
 L  YC050304
 L  YC050305
 L  YC050306
 L  YC050404
 L  YC050405
 L  YC050406
 L  YC060101
 L  YC060102
 L  YC060201
 L  YC060202
 L  YC060301
 L  YC060302
 L  YC060401
 L  YC060402
 L  YC070102
 L  YC070103
 L  YC070202
 L  YC070203
 L  YC070302
 L  YC070303
 L  YC070402
 L  YC070403
COLUMNS
    X010101.  DAT01.1.  200
    X010101.  DURE101.  1
    X010101.  YC010101  1
    X010102.  DATE0102  200
    X010102.  DURE102.  1
    X010102.  YC010102  1
    X010103.  DATE0103  200
    X010103.  DURE103.  1
    X010103.  YC010103  1
    X010104.  DATE0105  200
    X010104.  DURE104.  1
    X010104.  YC010104  1
    X010105.  DATE0105  200
    X010105.  DURE105.  1
    X010105.  YC010105  1
    X010106.  DATE0106  200
    X010106.  DURE106.  1
    X010106.  YC010106  1
    X010201.  DAT01.1.  300
    X010201.  DURE201.  1
    X010201.  YC010201  1
    X010202.  DATE0102  300
    X010202.  DURE202.  1
    X010202.  YC010202  1
    X010203.  DATE0103  300
    X010203.  DURE203.  1
    X010203.  YC010203  1
    X010204.  DATE0105  300
    X010204.  DURE204.  1
    X010204.  YC010204  1
    X010205.  DATE0105  300
    X010205.  DURE205.  1
    X010205.  YC010205  1
    X010206.  DATE0106  300
    X010206.  DURE206.  1
    X010206.  YC010206  1
    X010301.  DAT01.1.  400
    X010301.  DURE301.  1
    X010301.  YC010301  1
    X010302.  DATE0102  400
    X010302.  DURE302.  1
    X010302.  YC010302  1
    X010303.  DATE0103  400
    X010303.  DURE303.  1
    X010303.  YC010303  1
    X010304.  DATE0105  400
    X010304.  DURE304.  1
    X010304.  YC010304  1
    X010305.  DATE0105  400
    X010305.  DURE305.  1
    X010305.  YC010305  1
    X010306.  DATE0106  400
    X010306.  DURE306.  1
    X010306.  YC010306  1
    X010401.  DAT01.1.  300
    X010401.  DURE401.  1
    X010401.  YC010401  1
    X010402.  DATE0102  300
    X010402.  DURE402.  1
    X010402.  YC010402  1
    X010403.  DATE0103  300
    X010403.  DURE403.  1
    X010403.  YC010403  1
    X010404.  DATE0105  300
    X010404.  DURE404.  1
    X010404.  YC010404  1
    X010405.  DATE0105  300
    X010405.  DURE405.  1
    X010405.  YC010405  1
    X010406.  DATE0106  300
    X010406.  DURE406.  1
    X010406.  YC010406  1
    X020102.  DATE0202  400
    X020102.  DURE102.  1
    X020102.  YC020102  1
    X020103.  DATE0203  400
    X020103.  DURE103.  1
    X020103.  YC020103  1
    X020104.  DATE0204  400
    X020104.  DURE104.  1
    X020104.  YC020104  1
    X020105.  DATE0205  400
    X020105.  DURE105.  1
    X020105.  YC020105  1
    X020202.  DATE0202  200
    X020202.  DURE202.  1
    X020202.  YC020202  1
    X020203.  DATE0203  200
    X020203.  DURE203.  1
    X020203.  YC020203  1
    X020204.  DATE0204  200
    X020204.  DURE204.  1
    X020204.  YC020204  1
    X020205.  DATE0205  200
    X020205.  DURE205.  1
    X020205.  YC020205  1
    X020302.  DATE0202  100
    X020302.  DURE302.  1
    X020302.  YC020302  1
    X020303.  DATE0203  100
    X020303.  DURE303.  1
    X020303.  YC020303  1
    X020304.  DATE0204  100
    X020304.  DURE304.  1
    X020304.  YC020304  1
    X020305.  DATE0205  100
    X020305.  DURE305.  1
    X020305.  YC020305  1
    X020402.  DATE0202  400
    X020402.  DURE402.  1
    X020402.  YC020402  1
    X020403.  DATE0203  400
    X020403.  DURE403.  1
    X020403.  YC020403  1
    X020404.  DATE0204  400
    X020404.  DURE404.  1
    X020404.  YC020404  1
    X020405.  DATE0205  400
    X020405.  DURE405.  1
    X020405.  YC020405  1
    X030104.  DATE0304  400
    X030104.  DURE104.  1
    X030104.  YC030104  1
    X030105.  DATE0305  400
    X030105.  DURE105.  1
    X030105.  YC030105  1
    X030204.  DATE0304  400
    X030204.  DURE204.  1
    X030204.  YC030204  1
    X030205.  DATE0305  400
    X030205.  DURE205.  1
    X030205.  YC030205  1
    X030304.  DATE0304  300
    X030304.  DURE304.  1
    X030304.  YC030304  1
    X030305.  DATE0305  300
    X030305.  DURE305.  1
    X030305.  YC030305  1
    X030404.  DATE0304  400
    X030404.  DURE404.  1
    X030404.  YC030404  1
    X030405.  DATE0305  400
    X030405.  DURE405.  1
    X030405.  YC030405  1
    X040105.  DATE0405  300
    X040105.  DURE105.  1
    X040105.  YC040105  1
    X040106.  DATE0406  300
    X040106.  DURE106.  1
    X040106.  YC040106  1
    X040205.  DATE0405  400
    X040205.  DURE205.  1
    X040205.  YC040205  1
    X040206.  DATE0406  400
    X040206.  DURE206.  1
    X040206.  YC040206  1
    X040305.  DATE0405  200
    X040305.  DURE305.  1
    X040305.  YC040305  1
    X040306.  DATE0406  200
    X040306.  DURE306.  1
    X040306.  YC040306  1
    X040405.  DATE0405  300
    X040405.  DURE405.  1
    X040405.  YC040405  1
    X040406.  DATE0406  300
    X040406.  DURE406.  1
    X040406.  YC040406  1
    X050104.  DATE0504  200
    X050104.  DURE104.  1
    X050104.  YC050104  1
    X050105.  DATE0505  200
    X050105.  DURE105.  1
    X050105.  YC050105  1
    X050106.  DATE0506  200
    X050106.  DURE106.  1
    X050106.  YC050106  1
    X050204.  DATE0504  200
    X050204.  DURE204.  1
    X050204.  YC050204  1
    X050205.  DATE0505  200
    X050205.  DURE205.  1
    X050205.  YC050205  1
    X050206.  DATE0506  200
    X050206.  DURE206.  1
    X050206.  YC050206  1
    X050304.  DATE0504  100
    X050304.  DURE304.  1
    X050304.  YC050304  1
    X050305.  DATE0505  100
    X050305.  DURE305.  1
    X050305.  YC050305  1
    X050306.  DATE0506  100
    X050306.  DURE306.  1
    X050306.  YC050306  1
    X050404.  DATE0504  200
    X050404.  DURE404.  1
    X050404.  YC050404  1
    X050405.  DATE0505  200
    X050405.  DURE405.  1
    X050405.  YC050405  1
    X050406.  DATE0506  200
    X050406.  DURE406.  1
    X050406.  YC050406  1
    X060101.  DAT06.1.  300
    X060101.  DURE101.  1
    X060101.  YC060101  1
    X060102.  DATE0602  300
    X060102.  DURE102.  1
    X060102.  YC060102  1
    X060201.  DAT06.1.  500
    X060201.  DURE201.  1
    X060201.  YC060201  1
    X060202.  DATE0602  500
    X060202.  DURE202.  1
    X060202.  YC060202  1
    X060301.  DAT06.1.  600
    X060301.  DURE301.  1
    X060301.  YC060301  1
    X060302.  DATE0602  600
    X060302.  DURE302.  1
    X060302.  YC060302  1
    X060401.  DAT06.1.  600
    X060401.  DURE401.  1
    X060401.  YC060401  1
    X060402.  DATE0602  600
    X060402.  DURE402.  1
    X060402.  YC060402  1
    X070102.  DATE0702  500
    X070102.  DURE102.  1
    X070102.  YC070102  1
    X070103.  DATE0703  500
    X070103.  DURE103.  1
    X070103.  YC070103  1
    X070202.  DATE0702  500
    X070202.  DURE202.  1
    X070202.  YC070202  1
    X070203.  DATE0703  500
    X070203.  DURE203.  1
    X070203.  YC070203  1
    X070302.  DATE0702  400
    X070302.  DURE302.  1
    X070302.  YC070302  1
    X070303.  DATE0703  400
    X070303.  DURE303.  1
    X070303.  YC070303  1
    X070402.  DATE0702  600
    X070402.  DURE402.  1
    X070402.  YC070402  1
    X070403.  DATE0703  600
    X070403.  DURE403.  1
    X070403.  YC070403  1
    MARKER    'MARKER'                 'INTORG'
    Y010101.  OBJ       1
    Y010101.  YC010101  -1
    Y010102.  OBJ       1
    Y010102.  YC010102  -1
    Y010103.  OBJ       1
    Y010103.  YC010103  -1
    Y010104.  OBJ       1
    Y010104.  YC010104  -1
    Y010105.  OBJ       1
    Y010105.  YC010105  -1
    Y010106.  OBJ       1
    Y010106.  YC010106  -1
    Y010201.  OBJ       1
    Y010201.  YC010201  -1
    Y010202.  OBJ       1
    Y010202.  YC010202  -1
    Y010203.  OBJ       1
    Y010203.  YC010203  -1
    Y010204.  OBJ       1
    Y010204.  YC010204  -6.6666666666666663e-01
    Y010205.  OBJ       1
    Y010205.  YC010205  -6.6666666666666663e-01
    Y010206.  OBJ       1
    Y010206.  YC010206  -1
    Y010301.  OBJ       1
    Y010301.  YC010301  -1
    Y010302.  OBJ       1
    Y010302.  YC010302  -1
    Y010303.  OBJ       1
    Y010303.  YC010303  -1
    Y010304.  OBJ       1
    Y010304.  YC010304  -0.5
    Y010305.  OBJ       1
    Y010305.  YC010305  -0.5
    Y010306.  OBJ       1
    Y010306.  YC010306  -1
    Y010401.  OBJ       1
    Y010401.  YC010401  -1
    Y010402.  OBJ       1
    Y010402.  YC010402  -1
    Y010403.  OBJ       1
    Y010403.  YC010403  -1
    Y010404.  OBJ       1
    Y010404.  YC010404  -6.6666666666666663e-01
    Y010405.  OBJ       1
    Y010405.  YC010405  -6.6666666666666663e-01
    Y010406.  OBJ       1
    Y010406.  YC010406  -1
    Y020102.  OBJ       1
    Y020102.  YC020102  -0.75
    Y020103.  OBJ       1
    Y020103.  YC020103  -1
    Y020104.  OBJ       1
    Y020104.  YC020104  -1
    Y020105.  OBJ       1
    Y020105.  YC020105  -1
    Y020202.  OBJ       1
    Y020202.  YC020202  -1
    Y020203.  OBJ       1
    Y020203.  YC020203  -1
    Y020204.  OBJ       1
    Y020204.  YC020204  -1
    Y020205.  OBJ       1
    Y020205.  YC020205  -1
    Y020302.  OBJ       1
    Y020302.  YC020302  -1
    Y020303.  OBJ       1
    Y020303.  YC020303  -1
    Y020304.  OBJ       1
    Y020304.  YC020304  -1
    Y020305.  OBJ       1
    Y020305.  YC020305  -1
    Y020402.  OBJ       1
    Y020402.  YC020402  -0.75
    Y020403.  OBJ       1
    Y020403.  YC020403  -1
    Y020404.  OBJ       1
    Y020404.  YC020404  -1
    Y020405.  OBJ       1
    Y020405.  YC020405  -1
    Y030104.  OBJ       1
    Y030104.  YC030104  -0.75
    Y030105.  OBJ       1
    Y030105.  YC030105  -1
    Y030204.  OBJ       1
    Y030204.  YC030204  -0.75
    Y030205.  OBJ       1
    Y030205.  YC030205  -1
    Y030304.  OBJ       1
    Y030304.  YC030304  -1
    Y030305.  OBJ       1
    Y030305.  YC030305  -1
    Y030404.  OBJ       1
    Y030404.  YC030404  -0.75
    Y030405.  OBJ       1
    Y030405.  YC030405  -1
    Y040105.  OBJ       1
    Y040105.  YC040105  -1
    Y040106.  OBJ       1
    Y040106.  YC040106  -1
    Y040205.  OBJ       1
    Y040205.  YC040205  -0.75
    Y040206.  OBJ       1
    Y040206.  YC040206  -1
    Y040305.  OBJ       1
    Y040305.  YC040305  -1
    Y040306.  OBJ       1
    Y040306.  YC040306  -1
    Y040405.  OBJ       1
    Y040405.  YC040405  -1
    Y040406.  OBJ       1
    Y040406.  YC040406  -1
    Y050104.  OBJ       1
    Y050104.  YC050104  -1
    Y050105.  OBJ       1
    Y050105.  YC050105  -1
    Y050106.  OBJ       1
    Y050106.  YC050106  -1
    Y050204.  OBJ       1
    Y050204.  YC050204  -1
    Y050205.  OBJ       1
    Y050205.  YC050205  -1
    Y050206.  OBJ       1
    Y050206.  YC050206  -1
    Y050304.  OBJ       1
    Y050304.  YC050304  -1
    Y050305.  OBJ       1
    Y050305.  YC050305  -1
    Y050306.  OBJ       1
    Y050306.  YC050306  -1
    Y050404.  OBJ       1
    Y050404.  YC050404  -1
    Y050405.  OBJ       1
    Y050405.  YC050405  -1
    Y050406.  OBJ       1
    Y050406.  YC050406  -1
    Y060101.  OBJ       1
    Y060101.  YC060101  -1
    Y060102.  OBJ       1
    Y060102.  YC060102  -1
    Y060201.  OBJ       1
    Y060201.  YC060201  -1
    Y060202.  OBJ       1
    Y060202.  YC060202  -0.6
    Y060301.  OBJ       1
    Y060301.  YC060301  -1
    Y060302.  OBJ       1
    Y060302.  YC060302  -0.5
    Y060401.  OBJ       1
    Y060401.  YC060401  -1
    Y060402.  OBJ       1
    Y060402.  YC060402  -0.5
    Y070102.  OBJ       1
    Y070102.  YC070102  -0.6
    Y070103.  OBJ       1
    Y070103.  YC070103  -1
    Y070202.  OBJ       1
    Y070202.  YC070202  -0.6
    Y070203.  OBJ       1
    Y070203.  YC070203  -1
    Y070302.  OBJ       1
    Y070302.  YC070302  -0.75
    Y070303.  OBJ       1
    Y070303.  YC070303  -1
    Y070402.  OBJ       1
    Y070402.  YC070402  -0.5
    Y070403.  OBJ       1
    Y070403.  YC070403  -1
    MARKER    'MARKER'                 'INTEND'
    S01.01..  DATE0102  1
    S01.01..  DAT01.1.  -1
    S01.02..  DATE0102  -1
    S01.02..  DATE0103  1
    S01.03..  DATE0105  1
    S01.03..  DATE0103  -1
    S01.05..  DATE0105  -1
    S01.05..  DATE0106  1
    S01.06..  DATE0106  -1
    S02.02..  DATE0202  -1
    S02.02..  DATE0203  1
    S02.03..  DATE0203  -1
    S02.03..  DATE0204  1
    S02.04..  DATE0204  -1
    S02.04..  DATE0205  1
    S02.05..  DATE0205  -1
    S03.04..  DATE0304  -1
    S03.04..  DATE0305  1
    S03.05..  DATE0305  -1
    S04.05..  DATE0405  -1
    S04.05..  DATE0406  1
    S04.06..  DATE0406  -1
    S05.04..  DATE0504  -1
    S05.04..  DATE0505  1
    S05.05..  DATE0505  -1
    S05.05..  DATE0506  1
    S05.06..  DATE0506  -1
    S06.01..  DATE0602  1
    S06.01..  DAT06.1.  -1
    S06.02..  DATE0602  -1
    S07.02..  DATE0702  -1
    S07.02..  DATE0703  1
    S07.03..  DATE0703  -1
RHS
    RHS1      DATE0102  300
    RHS1      DATE0103  300
    RHS1      DATE0106  600
    RHS1      DATE0202  -100
    RHS1      DATE0203  200
    RHS1      DATE0204  400
    RHS1      DATE0205  400
    RHS1      DATE0304  -100
    RHS1      DATE0305  600
    RHS1      DATE0405  -200
    RHS1      DATE0406  800
    RHS1      DATE0506  100
    RHS1      DATE0602  200
    RHS1      DATE0703  500
    RHS1      DAT01.1.  200
    RHS1      DAT06.1.  400
    RHS1      DURE101.  1
    RHS1      DURE102.  1
    RHS1      DURE103.  1
    RHS1      DURE104.  1
    RHS1      DURE105.  1
    RHS1      DURE106.  1
    RHS1      DURE201.  1
    RHS1      DURE202.  1
    RHS1      DURE203.  1
    RHS1      DURE204.  1
    RHS1      DURE205.  1
    RHS1      DURE206.  1
    RHS1      DURE301.  1
    RHS1      DURE302.  1
    RHS1      DURE303.  1
    RHS1      DURE304.  1
    RHS1      DURE305.  1
    RHS1      DURE306.  1
    RHS1      DURE401.  1
    RHS1      DURE402.  1
    RHS1      DURE403.  1
    RHS1      DURE404.  1
    RHS1      DURE405.  1
    RHS1      DURE406.  1
BOUNDS
 UP BND1      X010101.  1
 UP BND1      X010102.  1
 UP BND1      X010103.  1
 UP BND1      X010104.  1
 UP BND1      X010105.  1
 UP BND1      X010106.  1
 UP BND1      X010201.  1
 UP BND1      X010202.  1
 UP BND1      X010203.  1
 UP BND1      X010204.  6.6666666666666663e-01
 UP BND1      X010205.  6.6666666666666663e-01
 UP BND1      X010206.  1
 UP BND1      X010301.  1
 UP BND1      X010302.  1
 UP BND1      X010303.  1
 UP BND1      X010304.  0.5
 UP BND1      X010305.  0.5
 UP BND1      X010306.  1
 UP BND1      X010401.  1
 UP BND1      X010402.  1
 UP BND1      X010403.  1
 UP BND1      X010404.  6.6666666666666663e-01
 UP BND1      X010405.  6.6666666666666663e-01
 UP BND1      X010406.  1
 UP BND1      X020102.  0.75
 UP BND1      X020103.  1
 UP BND1      X020104.  1
 UP BND1      X020105.  1
 UP BND1      X020202.  1
 UP BND1      X020203.  1
 UP BND1      X020204.  1
 UP BND1      X020205.  1
 UP BND1      X020302.  1
 UP BND1      X020303.  1
 UP BND1      X020304.  1
 UP BND1      X020305.  1
 UP BND1      X020402.  0.75
 UP BND1      X020403.  1
 UP BND1      X020404.  1
 UP BND1      X020405.  1
 UP BND1      X030104.  0.75
 UP BND1      X030105.  1
 UP BND1      X030204.  0.75
 UP BND1      X030205.  1
 UP BND1      X030304.  1
 UP BND1      X030305.  1
 UP BND1      X030404.  0.75
 UP BND1      X030405.  1
 UP BND1      X040105.  1
 UP BND1      X040106.  1
 UP BND1      X040205.  0.75
 UP BND1      X040206.  1
 UP BND1      X040305.  1
 UP BND1      X040306.  1
 UP BND1      X040405.  1
 UP BND1      X040406.  1
 UP BND1      X050104.  1
 UP BND1      X050105.  1
 UP BND1      X050106.  1
 UP BND1      X050204.  1
 UP BND1      X050205.  1
 UP BND1      X050206.  1
 UP BND1      X050304.  1
 UP BND1      X050305.  1
 UP BND1      X050306.  1
 UP BND1      X050404.  1
 UP BND1      X050405.  1
 UP BND1      X050406.  1
 UP BND1      X060101.  1
 UP BND1      X060102.  1
 UP BND1      X060201.  1
 UP BND1      X060202.  0.6
 UP BND1      X060301.  1
 UP BND1      X060302.  0.5
 UP BND1      X060401.  1
 UP BND1      X060402.  0.5
 UP BND1      X070102.  0.6
 UP BND1      X070103.  1
 UP BND1      X070202.  0.6
 UP BND1      X070203.  1
 UP BND1      X070302.  0.75
 UP BND1      X070303.  1
 UP BND1      X070402.  0.5
 UP BND1      X070403.  1
 BV BND1      Y010101.
 BV BND1      Y010102.
 BV BND1      Y010103.
 BV BND1      Y010104.
 BV BND1      Y010105.
 BV BND1      Y010106.
 BV BND1      Y010201.
 BV BND1      Y010202.
 BV BND1      Y010203.
 BV BND1      Y010204.
 BV BND1      Y010205.
 BV BND1      Y010206.
 BV BND1      Y010301.
 BV BND1      Y010302.
 BV BND1      Y010303.
 BV BND1      Y010304.
 BV BND1      Y010305.
 BV BND1      Y010306.
 BV BND1      Y010401.
 BV BND1      Y010402.
 BV BND1      Y010403.
 BV BND1      Y010404.
 BV BND1      Y010405.
 BV BND1      Y010406.
 BV BND1      Y020102.
 BV BND1      Y020103.
 BV BND1      Y020104.
 BV BND1      Y020105.
 BV BND1      Y020202.
 BV BND1      Y020203.
 BV BND1      Y020204.
 BV BND1      Y020205.
 BV BND1      Y020302.
 BV BND1      Y020303.
 BV BND1      Y020304.
 BV BND1      Y020305.
 BV BND1      Y020402.
 BV BND1      Y020403.
 BV BND1      Y020404.
 BV BND1      Y020405.
 BV BND1      Y030104.
 BV BND1      Y030105.
 BV BND1      Y030204.
 BV BND1      Y030205.
 BV BND1      Y030304.
 BV BND1      Y030305.
 BV BND1      Y030404.
 BV BND1      Y030405.
 BV BND1      Y040105.
 BV BND1      Y040106.
 BV BND1      Y040205.
 BV BND1      Y040206.
 BV BND1      Y040305.
 BV BND1      Y040306.
 BV BND1      Y040405.
 BV BND1      Y040406.
 BV BND1      Y050104.
 BV BND1      Y050105.
 BV BND1      Y050106.
 BV BND1      Y050204.
 BV BND1      Y050205.
 BV BND1      Y050206.
 BV BND1      Y050304.
 BV BND1      Y050305.
 BV BND1      Y050306.
 BV BND1      Y050404.
 BV BND1      Y050405.
 BV BND1      Y050406.
 BV BND1      Y060101.
 BV BND1      Y060102.
 BV BND1      Y060201.
 BV BND1      Y060202.
 BV BND1      Y060301.
 BV BND1      Y060302.
 BV BND1      Y060401.
 BV BND1      Y060402.
 BV BND1      Y070102.
 BV BND1      Y070103.
 BV BND1      Y070202.
 BV BND1      Y070203.
 BV BND1      Y070302.
 BV BND1      Y070303.
 BV BND1      Y070402.
 BV BND1      Y070403.
 LO BND1      S01.01..  100
 UP BND1      S01.01..  300
 LO BND1      S01.02..  100
 UP BND1      S01.02..  300
 LO BND1      S01.03..  100
 UP BND1      S01.03..  300
 LO BND1      S01.05..  100
 UP BND1      S01.05..  300
 LO BND1      S01.06..  100
 UP BND1      S01.06..  300
 LO BND1      S02.02..  200
 UP BND1      S02.02..  400
 LO BND1      S02.03..  200
 UP BND1      S02.03..  400
 LO BND1      S02.04..  200
 UP BND1      S02.04..  400
 LO BND1      S02.05..  200
 UP BND1      S02.05..  400
 LO BND1      S03.04..  300
 UP BND1      S03.04..  400
 LO BND1      S03.05..  300
 UP BND1      S03.05..  400
 LO BND1      S04.05..  400
 UP BND1      S04.05..  500
 LO BND1      S04.06..  400
 UP BND1      S04.06..  500
 LO BND1      S05.04..  200
 UP BND1      S05.04..  500
 LO BND1      S05.05..  200
 UP BND1      S05.05..  500
 LO BND1      S05.06..  200
 UP BND1      S05.06..  500
 LO BND1      S06.01..  300
 UP BND1      S06.01..  400
 LO BND1      S06.02..  300
 UP BND1      S06.02..  400
 LO BND1      S07.02..  200
 UP BND1      S07.02..  300
 LO BND1      S07.03..  200
 UP BND1      S07.03..  300
ENDATA
